p cnf 117 378
c t mc
1 2 -3 0
-1 -2 -3 0
1 -2 3 0
-1 2 3 0
-6 4 0
-6 5 0
-4 -5 6 0
-6 7 -8 0
6 -7 -8 0
-6 -7 8 0
6 7 8 0
3 8 -9 0
-3 -8 -9 0
3 -8 9 0
-3 8 9 0
10 2 -11 0
-10 -2 -11 0
10 -2 11 0
-10 2 11 0
1 11 -12 0
-1 -11 -12 0
1 -11 12 0
-1 11 12 0
15 -13 0
15 -14 0
13 14 -15 0
15 -16 -17 0
-15 16 -17 0
15 16 17 0
-15 -16 17 0
18 17 0
18 11 0
-17 -11 -18 0
18 17 -19 0
-18 -17 -19 0
18 -17 19 0
-18 17 19 0
-21 -5 -22 0
21 5 -22 0
-21 5 22 0
21 -5 22 0
-23 20 0
-23 -22 0
-20 22 23 0
-24 -10 0
-24 -23 0
10 23 24 0
26 24 0
26 25 0
-24 -25 -26 0
-5 -26 -27 0
5 26 -27 0
-5 26 27 0
5 -26 27 0
-28 27 0
-28 -10 0
-27 10 28 0
29 19 0
29 -28 0
-19 28 -29 0
30 -12 0
30 29 0
12 -29 -30 0
31 -4 0
31 -4 0
4 -31 0
32 -16 0
32 31 0
16 -31 -32 0
-34 -32 0
-34 -33 0
32 33 34 0
37 35 0
37 36 0
-35 -36 -37 0
-38 -34 0
-38 37 0
34 -37 38 0
40 -4 0
40 39 0
4 -39 -40 0
41 -10 0
41 -40 0
10 40 -41 0
42 38 0
42 -41 0
-38 41 -42 0
43 30 0
43 42 0
-30 -42 -43 0
39 -44 -45 0
-39 44 -45 0
39 44 45 0
-39 -44 45 0
46 -45 0
46 2 0
45 -2 -46 0
47 -43 0
47 -46 0
43 46 -47 0
-48 9 0
-48 -47 0
-9 47 48 0
49 36 0
49 -5 0
-36 5 -49 0
-20 -24 -50 0
20 24 -50 0
-20 24 50 0
20 -24 50 0
-51 40 0
-51 -11 0
-40 11 51 0
-51 -14 -52 0
51 14 -52 0
-51 14 52 0
51 -14 52 0
53 -52 0
53 51 0
52 -51 -53 0
54 23 0
54 14 0
-23 -14 -54 0
-55 -31 0
-55 -37 0
31 37 55 0
-54 55 -56 0
54 -55 -56 0
-54 -55 56 0
54 55 56 0
57 -56 0
57 -16 0
56 16 -57 0
-58 21 0
-58 -35 0
-21 35 58 0
58 35 -59 0
-58 -35 -59 0
58 -35 59 0
-58 35 59 0
-60 54 0
-60 -59 0
-54 59 60 0
-61 -57 0
-61 -60 0
57 60 61 0
62 40 0
62 -23 0
-40 23 -62 0
63 -61 0
63 62 0
61 -62 -63 0
-64 -21 0
-64 -8 0
21 8 64 0
65 -35 0
65 -23 0
35 23 -65 0
-64 -65 -66 0
64 65 -66 0
-64 65 66 0
64 -65 66 0
67 63 0
67 -66 0
-63 66 -67 0
-39 -37 -68 0
39 37 -68 0
-39 37 68 0
39 -37 68 0
-69 -67 0
-69 -68 0
67 68 69 0
70 53 0
70 69 0
-53 -69 -70 0
71 36 0
71 -1 0
-36 1 -71 0
-72 10 0
-72 54 0
-10 -54 72 0
73 71 0
73 72 0
-71 -72 -73 0
-45 -37 -74 0
45 37 -74 0
-45 37 74 0
45 -37 74 0
-75 55 0
-75 -65 0
-55 65 75 0
-76 -56 0
-76 72 0
56 -72 76 0
75 -76 -77 0
-75 76 -77 0
75 76 77 0
-75 -76 77 0
78 -74 0
78 -77 0
74 77 -78 0
79 73 0
79 78 0
-73 -78 -79 0
81 -31 0
81 4 0
31 -4 -81 0
-82 -5 0
-82 81 0
5 -81 82 0
-83 80 0
-83 82 0
-80 -82 83 0
65 83 -84 0
-65 -83 -84 0
65 -83 84 0
-65 83 84 0
85 79 0
85 -84 0
-79 84 -85 0
-86 70 0
-86 -85 0
-70 85 86 0
-88 -87 0
-88 13 0
87 -13 88 0
89 86 0
89 88 0
-86 -88 -89 0
-90 50 0
-90 -89 0
-50 89 90 0
91 40 0
91 2 0
-40 -2 -91 0
-92 31 0
-92 91 0
-31 -91 92 0
93 -92 0
93 -24 0
92 24 -93 0
95 -94 0
95 40 0
94 -40 -95 0
-96 -93 0
-96 -95 0
93 95 96 0
32 -51 -97 0
-32 51 -97 0
32 51 97 0
-32 -51 97 0
98 71 0
98 22 0
-71 -22 -98 0
99 -97 0
99 98 0
97 -98 -99 0
-100 92 0
-100 -32 0
-92 32 100 0
-81 -100 -101 0
81 100 -101 0
-81 100 101 0
81 -100 101 0
102 -38 0
102 -16 0
38 16 -102 0
103 101 0
103 -102 0
-101 102 -103 0
-104 99 0
-104 -103 0
-99 103 104 0
96 104 -105 0
-96 -104 -105 0
96 -104 105 0
-96 104 105 0
-106 1 0
-106 10 0
-1 -10 106 0
-108 -107 0
-108 24 0
107 -24 108 0
-109 106 0
-109 108 0
-106 -108 109 0
24 16 -110 0
-24 -16 -110 0
24 -16 110 0
-24 16 110 0
-59 8 -111 0
59 -8 -111 0
-59 -8 111 0
59 8 111 0
-112 -110 0
-112 111 0
110 -111 112 0
113 -109 0
113 112 0
109 -112 -113 0
-105 113 -114 0
105 -113 -114 0
-105 -113 114 0
105 113 114 0
115 -90 0
115 114 0
90 -114 -115 0
-49 -115 -116 0
49 115 -116 0
-49 115 116 0
49 -115 116 0
-117 48 0
-117 -116 0
-48 116 117 0
-87 46 56 -75 -49 111 76 26 -28 0
66 -37 0
-72 -69 48 57 -55 27 63 0
-103 37 32 -95 52 -62 0
-3 -106 40 0
-78 -81 0
-111 -39 55 -92 -37 0
83 -23 26 5 82 68 110 20 114 0
23 26 -78 86 -59 -30 0
-46 74 -3 -77 -88 40 29 0
94 -71 -23 20 0
-59 -99 -25 -13 5 -78 -46 -95 42 0
-31 -67 26 86 -112 -30 0
34 -36 23 -67 -94 -47 29 78 -76 0
-108 21 72 -36 -63 0
66 -107 35 100 -81 -43 0
-4 94 -89 0
-2 -75 -18 -22 28 0
94 -117 0
101 -35 -8 -44 -39 -103 89 0
-62 41 0
99 -26 -23 102 113 75 -52 65 -16 0
6 -60 110 -38 0
84 -93 48 61 83 30 -42 -113 14 35 0
-47 96 43 -40 71 -104 67 4 0
44 3 115 6 46 17 98 105 0
93 -1 -86 -66 0
-97 -66 0
22 -78 2 0
72 73 -76 -41 -114 0
29 -112 99 0
-100 64 -89 -107 11 25 39 -16 103 -73 0
-112 95 0
31 97 69 -109 61 -107 92 25 0
-83 -109 15 71 0
-48 65 0
96 45 0
29 -110 -58 44 0
-39 70 0
95 76 -117 43 -116 -81 -91 26 -34 0
55 -66 44 68 -5 0
-63 20 83 -4 -30 -25 79 65 55 -22 0
-40 -60 -113 39 21 8 0
-95 -82 60 3 113 -66 0
59 -11 -37 0
87 -89 -93 101 58 90 -82 -30 -95 0
107 9 0
77 96 0
-93 -109 114 106 -18 30 0
16 88 83 -110 0
-37 -5 -97 -29 0
-29 35 -62 -89 75 -27 37 30 -46 14 0
-74 89 -22 55 106 4 1 -43 116 0
59 51 28 73 -107 30 0
-64 -11 87 -26 -108 72 45 -36 -80 0
-64 -15 -39 82 0
-72 61 -79 46 4 77 1 90 -78 0
-39 55 0
-39 -60 27 47 66 36 3 -106 0
59 -111 36 0
-25 12 23 -5 15 -62 74 105 0
72 -44 -17 59 -8 -20 32 0
51 43 0
117 0
